# Solution for model r5_t18_m3_9 Batch Number: 2
# Finished Task: 9 / 18
# Makespan: 457.0, Total Distance: 167.0, Total Time: 0.5523
# R O S F Batch
0 0 16 0.0 0.0 -1
1 1 9 0.0 0.0 -1
2 2 15 0.0 0.0 -1
3 3 19 0.0 0.0 -1
4 4 -1 0.0 0.0 -1
5 1 -1 422.0 457.0 1
6 -1 -1 -1.0 -1.0 0
7 -1 -1 -1.0 -1.0 1
8 -1 -1 -1.0 -1.0 1
9 1 14 284.0 309.0 0
10 -1 -1 -1.0 -1.0 1
11 -1 -1 -1.0 -1.0 1
12 -1 -1 -1.0 -1.0 1
13 -1 -1 -1.0 -1.0 1
14 1 5 359.0 396.0 0
15 2 22 42.0 72.0 0
16 0 18 66.0 97.0 0
17 0 -1 299.0 322.0 0
18 0 17 238.0 270.0 0
19 3 -1 309.0 344.0 0
20 -1 -1 -1.0 -1.0 1
21 -1 -1 -1.0 -1.0 1
22 2 -1 322.0 359.0 0
